p edge 100 990
e 1 14
e 1 26
e 1 27
e 1 28
e 1 29
e 1 56
e 1 60
e 1 65
e 1 69
e 1 70
e 1 92
e 1 95
e 1 99
e 2 4
e 2 7
e 2 8
e 2 9
e 2 19
e 2 22
e 2 24
e 2 38
e 2 40
e 2 44
e 2 61
e 2 62
e 2 63
e 2 80
e 2 81
e 2 82
e 2 83
e 2 88
e 2 91
e 2 93
e 2 99
e 3 9
e 3 23
e 3 25
e 3 31
e 3 35
e 3 41
e 3 42
e 3 47
e 3 48
e 3 54
e 3 63
e 3 65
e 3 68
e 3 74
e 3 76
e 3 79
e 3 88
e 3 92
e 3 99
e 3 100
e 4 13
e 4 16
e 4 17
e 4 26
e 4 50
e 4 51
e 4 75
e 4 98
e 5 22
e 5 28
e 5 34
e 5 35
e 5 44
e 5 45
e 5 49
e 5 53
e 5 61
e 5 68
e 5 79
e 5 80
e 5 85
e 5 89
e 5 94
e 5 96
e 6 9
e 6 12
e 6 31
e 6 36
e 6 37
e 6 39
e 6 41
e 6 47
e 6 48
e 6 57
e 6 61
e 6 62
e 6 63
e 6 73
e 6 81
e 6 87
e 6 91
e 6 92
e 6 98
e 6 99
e 7 12
e 7 13
e 7 18
e 7 24
e 7 28
e 7 42
e 7 43
e 7 48
e 7 50
e 7 54
e 7 59
e 7 60
e 7 61
e 7 64
e 7 71
e 7 77
e 7 82
e 7 83
e 7 84
e 7 85
e 7 91
e 8 9
e 8 11
e 8 17
e 8 33
e 8 35
e 8 38
e 8 39
e 8 42
e 8 44
e 8 60
e 8 61
e 8 62
e 8 72
e 8 74
e 8 77
e 8 80
e 8 90
e 8 91
e 8 97
e 8 98
e 9 10
e 9 19
e 9 20
e 9 21
e 9 24
e 9 26
e 9 27
e 9 28
e 9 37
e 9 38
e 9 53
e 9 64
e 9 67
e 9 68
e 9 69
e 9 71
e 9 72
e 9 78
e 9 79
e 9 82
e 9 84
e 9 86
e 9 97
e 9 98
e 10 11
e 10 17
e 10 24
e 10 36
e 10 49
e 10 52
e 10 57
e 10 60
e 10 62
e 10 63
e 10 64
e 10 65
e 10 84
e 10 85
e 10 91
e 10 92
e 10 94
e 10 95
e 10 96
e 11 13
e 11 15
e 11 25
e 11 28
e 11 36
e 11 46
e 11 60
e 11 63
e 11 64
e 11 68
e 11 74
e 11 76
e 11 77
e 11 81
e 11 84
e 11 88
e 11 92
e 11 97
e 11 99
e 11 100
e 12 15
e 12 18
e 12 23
e 12 29
e 12 35
e 12 36
e 12 38
e 12 39
e 12 40
e 12 42
e 12 46
e 12 72
e 12 74
e 12 75
e 12 77
e 12 88
e 12 91
e 12 100
e 13 18
e 13 20
e 13 24
e 13 25
e 13 27
e 13 29
e 13 44
e 13 57
e 13 60
e 13 69
e 13 72
e 13 89
e 13 94
e 13 97
e 13 100
e 14 16
e 14 19
e 14 25
e 14 26
e 14 32
e 14 33
e 14 35
e 14 39
e 14 47
e 14 55
e 14 56
e 14 64
e 14 82
e 14 83
e 14 88
e 14 89
e 14 98
e 15 28
e 15 30
e 15 33
e 15 39
e 15 47
e 15 48
e 15 50
e 15 60
e 15 64
e 15 65
e 15 70
e 15 76
e 15 78
e 15 85
e 15 87
e 15 98
e 15 99
e 16 24
e 16 29
e 16 31
e 16 44
e 16 47
e 16 48
e 16 51
e 16 53
e 16 62
e 16 68
e 16 74
e 16 79
e 16 84
e 16 88
e 16 93
e 16 95
e 16 100
e 17 26
e 17 32
e 17 40
e 17 46
e 17 53
e 17 55
e 17 57
e 17 58
e 17 63
e 17 66
e 17 72
e 17 74
e 17 77
e 17 89
e 17 93
e 17 94
e 17 97
e 18 42
e 18 48
e 18 49
e 18 62
e 18 63
e 18 68
e 18 74
e 18 80
e 18 85
e 18 86
e 18 87
e 18 88
e 18 91
e 18 93
e 18 94
e 18 100
e 19 23
e 19 28
e 19 29
e 19 30
e 19 31
e 19 32
e 19 38
e 19 40
e 19 41
e 19 46
e 19 47
e 19 53
e 19 56
e 19 57
e 19 64
e 19 65
e 19 68
e 19 73
e 19 87
e 19 88
e 19 93
e 19 98
e 19 99
e 20 26
e 20 27
e 20 34
e 20 36
e 20 41
e 20 55
e 20 67
e 20 82
e 20 87
e 20 88
e 20 93
e 20 94
e 20 98
e 21 23
e 21 28
e 21 32
e 21 33
e 21 39
e 21 49
e 21 57
e 21 58
e 21 60
e 21 65
e 21 66
e 21 69
e 21 80
e 21 91
e 21 92
e 21 97
e 22 26
e 22 30
e 22 32
e 22 39
e 22 44
e 22 55
e 22 67
e 22 71
e 22 73
e 22 80
e 22 84
e 22 95
e 22 99
e 23 27
e 23 29
e 23 34
e 23 80
e 23 81
e 23 84
e 23 85
e 23 89
e 23 92
e 23 99
e 24 25
e 24 30
e 24 37
e 24 50
e 24 54
e 24 57
e 24 58
e 24 68
e 24 76
e 24 79
e 24 80
e 24 84
e 24 94
e 25 29
e 25 30
e 25 31
e 25 32
e 25 41
e 25 47
e 25 52
e 25 55
e 25 65
e 25 73
e 25 81
e 25 96
e 25 98
e 25 99
e 26 31
e 26 32
e 26 36
e 26 38
e 26 45
e 26 59
e 26 69
e 26 72
e 26 76
e 26 79
e 26 81
e 26 88
e 26 91
e 26 96
e 26 99
e 27 30
e 27 32
e 27 48
e 27 49
e 27 52
e 27 58
e 27 67
e 27 73
e 27 81
e 27 92
e 28 30
e 28 41
e 28 44
e 28 45
e 28 53
e 28 54
e 28 59
e 28 61
e 28 66
e 28 75
e 28 80
e 28 84
e 28 91
e 28 93
e 28 94
e 29 32
e 29 34
e 29 36
e 29 41
e 29 43
e 29 47
e 29 48
e 29 51
e 29 55
e 29 58
e 29 64
e 29 65
e 29 73
e 29 78
e 29 84
e 29 95
e 30 34
e 30 36
e 30 37
e 30 48
e 30 52
e 30 54
e 30 61
e 30 64
e 30 66
e 30 71
e 30 77
e 30 81
e 30 92
e 30 95
e 30 98
e 30 99
e 31 41
e 31 45
e 31 47
e 31 52
e 31 56
e 31 62
e 31 77
e 31 80
e 31 85
e 31 89
e 31 96
e 32 33
e 32 34
e 32 38
e 32 40
e 32 42
e 32 50
e 32 54
e 32 55
e 32 59
e 32 61
e 32 66
e 32 76
e 32 78
e 32 86
e 32 88
e 32 90
e 32 98
e 32 99
e 33 34
e 33 35
e 33 44
e 33 46
e 33 47
e 33 48
e 33 50
e 33 57
e 33 58
e 33 59
e 33 60
e 33 69
e 33 83
e 33 87
e 33 92
e 33 96
e 33 97
e 34 39
e 34 43
e 34 44
e 34 50
e 34 53
e 34 54
e 34 55
e 34 58
e 34 61
e 34 63
e 34 68
e 34 71
e 34 72
e 34 73
e 34 74
e 34 81
e 34 82
e 34 85
e 34 87
e 34 95
e 34 100
e 35 36
e 35 37
e 35 39
e 35 53
e 35 54
e 35 61
e 35 71
e 35 78
e 35 81
e 35 85
e 35 97
e 35 98
e 36 44
e 36 47
e 36 50
e 36 65
e 36 68
e 36 69
e 36 70
e 36 75
e 36 80
e 36 88
e 36 89
e 36 96
e 37 38
e 37 41
e 37 47
e 37 48
e 37 56
e 37 64
e 37 65
e 37 67
e 37 71
e 37 82
e 37 84
e 37 87
e 37 89
e 37 94
e 37 95
e 38 44
e 38 45
e 38 48
e 38 49
e 38 65
e 38 68
e 38 72
e 38 76
e 38 80
e 38 82
e 38 86
e 38 89
e 38 95
e 39 43
e 39 47
e 39 48
e 39 56
e 39 59
e 39 61
e 39 64
e 39 65
e 39 68
e 39 78
e 39 84
e 39 86
e 39 100
e 40 44
e 40 52
e 40 54
e 40 55
e 40 90
e 40 91
e 40 94
e 40 99
e 41 44
e 41 56
e 41 61
e 41 63
e 41 65
e 41 80
e 41 82
e 41 94
e 41 96
e 41 97
e 41 98
e 41 100
e 42 50
e 42 55
e 42 58
e 42 64
e 42 72
e 42 77
e 42 87
e 42 93
e 42 100
e 43 44
e 43 45
e 43 46
e 43 58
e 43 60
e 43 65
e 43 73
e 43 75
e 43 80
e 43 81
e 43 83
e 43 84
e 43 86
e 43 100
e 44 45
e 44 53
e 44 56
e 44 61
e 44 64
e 44 84
e 44 87
e 45 47
e 45 49
e 45 53
e 45 57
e 45 82
e 45 83
e 45 91
e 45 95
e 46 52
e 46 53
e 46 59
e 46 69
e 46 71
e 46 72
e 46 77
e 46 84
e 46 85
e 46 94
e 47 55
e 47 68
e 47 69
e 47 72
e 47 80
e 47 88
e 47 90
e 47 92
e 47 93
e 47 96
e 47 97
e 48 49
e 48 63
e 48 67
e 48 77
e 48 81
e 48 82
e 48 86
e 48 95
e 48 96
e 49 51
e 49 52
e 49 55
e 49 58
e 49 61
e 49 68
e 49 69
e 49 71
e 49 75
e 49 77
e 49 82
e 49 85
e 49 88
e 49 89
e 49 91
e 49 93
e 49 95
e 49 99
e 50 55
e 50 58
e 50 59
e 50 68
e 50 72
e 50 79
e 50 82
e 50 84
e 50 85
e 50 89
e 50 97
e 50 98
e 50 100
e 51 63
e 51 64
e 51 69
e 51 75
e 51 86
e 51 92
e 51 97
e 52 54
e 52 56
e 52 61
e 52 69
e 52 80
e 52 83
e 52 85
e 52 87
e 52 88
e 52 93
e 52 96
e 52 99
e 52 100
e 53 61
e 53 67
e 53 68
e 53 72
e 53 74
e 53 85
e 53 86
e 53 91
e 54 61
e 54 64
e 54 66
e 54 72
e 54 81
e 54 97
e 54 98
e 55 58
e 55 59
e 55 64
e 55 67
e 55 70
e 55 75
e 55 84
e 55 87
e 55 88
e 55 98
e 56 58
e 56 62
e 56 63
e 56 72
e 56 88
e 56 96
e 56 97
e 56 100
e 57 62
e 57 67
e 57 68
e 57 80
e 57 85
e 57 88
e 57 99
e 58 62
e 58 64
e 58 71
e 58 76
e 58 79
e 58 80
e 58 81
e 58 82
e 58 83
e 58 87
e 58 91
e 58 92
e 58 95
e 58 98
e 59 62
e 59 63
e 59 66
e 59 68
e 59 80
e 59 81
e 59 86
e 59 92
e 59 93
e 59 95
e 59 97
e 60 68
e 60 71
e 60 78
e 60 81
e 60 83
e 60 90
e 60 93
e 61 71
e 61 75
e 61 80
e 61 82
e 61 86
e 61 89
e 61 93
e 62 63
e 62 67
e 62 69
e 62 73
e 62 75
e 62 78
e 62 86
e 62 93
e 62 99
e 63 72
e 63 74
e 63 75
e 63 90
e 63 97
e 64 65
e 64 69
e 64 73
e 64 79
e 64 80
e 64 81
e 64 85
e 64 94
e 64 96
e 65 66
e 65 70
e 65 72
e 65 74
e 65 75
e 65 78
e 65 79
e 65 90
e 65 95
e 65 98
e 66 67
e 66 79
e 66 82
e 66 83
e 66 85
e 66 87
e 66 89
e 66 90
e 66 91
e 66 94
e 66 98
e 67 68
e 67 81
e 67 85
e 67 89
e 67 96
e 68 69
e 68 71
e 68 72
e 68 79
e 68 83
e 68 85
e 68 97
e 68 99
e 69 71
e 69 73
e 69 78
e 69 85
e 69 87
e 69 91
e 70 72
e 70 74
e 70 76
e 70 77
e 70 78
e 70 87
e 70 96
e 71 77
e 71 83
e 71 93
e 71 95
e 72 75
e 72 79
e 72 85
e 72 87
e 72 90
e 72 91
e 73 90
e 73 96
e 74 76
e 74 78
e 74 80
e 74 85
e 74 87
e 74 97
e 75 80
e 75 85
e 75 99
e 75 100
e 76 77
e 76 78
e 76 85
e 76 90
e 76 93
e 77 85
e 77 90
e 78 80
e 78 81
e 78 84
e 78 85
e 78 88
e 78 99
e 79 81
e 79 94
e 80 91
e 80 95
e 81 82
e 81 88
e 81 93
e 81 96
e 82 89
e 82 90
e 82 91
e 82 93
e 82 97
e 83 84
e 83 93
e 83 97
e 83 100
e 84 86
e 84 87
e 84 93
e 86 88
e 86 92
e 86 93
e 87 89
e 87 91
e 87 92
e 87 99
e 88 95
e 89 91
e 89 93
e 89 99
e 90 97
e 91 97
e 91 99
e 93 94
e 93 100
e 94 98
e 94 99
e 95 98
e 95 100
e 96 97
e 99 100
